
--- Job 5_Transport_Problem.gms Start 11/17/21 22:15:46 35.1.0 r82a9585 WEX-WEI x86 64bit/MS Windows
--- Applying:
    C:\GAMS\35\gmsprmNT.txt
--- GAMS Parameters defined
    Input "C:\Users\Semih\Desktop\GAMS CALISMA\hasan_gams\5_Transport_Problem.gms"
    PageSize 0
    ScrDir "C:\Users\Semih\Desktop\GAMS CALISMA\hasan_gams\225a\"
    SysDir C:\GAMS\35\
    LogOption 3
    ErrMsg 1
    ErrorLog 99
    IDE 1
    LstTitleLeftAligned 1
Licensee: GAMS Community License for Mehmet Semih BabacanG210511|0002AO-GEN
          Yildiz Technical University                                CL1316
          C:\GAMS\35\gamslice.txt
          Mehmet Semih Babacan, l6918040@std.yildiz.edu.tr                 
          Community license for demonstration and instructional purposes only
GAMS 35.1.0   Copyright (C) 1987-2021 GAMS Development. All rights reserved
--- Starting compilation
--- 5_Transport_Problem.gms(26) 3 Mb
--- Starting execution: elapsed 0:00:00.012
--- Generating MIP model transport
--- 5_Transport_Problem.gms(25) 4 Mb
---   8 rows  16 columns  43 non-zeroes
---   3 discrete-columns
--- Executing CPLEX (Solvelink=2): elapsed 0:00:00.058

IBM ILOG CPLEX   35.1.0 r82a9585 Released Apr 29, 2021 WEI x86 64bit/MS Window

--- *** This solver runs with a community license. No commercial use.
--- GMO memory 0.50 Mb (peak 0.50 Mb)
--- Dictionary memory 0.00 Mb
--- Cplex 20.1.0.1 link memory 0.00 Mb (peak 0.00 Mb)
--- Starting Cplex

Version identifier: 20.1.0.1 | 2021-04-07 | 3a818710c
CPXPARAM_Advance                                 0
CPXPARAM_Simplex_Display                         2
CPXPARAM_Threads                                 1
CPXPARAM_MIP_Display                             4
CPXPARAM_MIP_Tolerances_AbsMIPGap                0
Generic callback                                 0x50
Tried aggregator 1 time.
MIP Presolve eliminated 0 rows and 1 columns.
Reduced MIP has 7 rows, 15 columns, and 27 nonzeros.
Reduced MIP has 3 binaries, 0 generals, 0 SOSs, and 0 indicators.
Presolve time = 0.02 sec. (0.01 ticks)
Found incumbent of value 1650000.000000 after 0.05 sec. (0.04 ticks)
Probing time = 0.02 sec. (0.00 ticks)
Tried aggregator 1 time.
Detecting symmetries...
Reduced MIP has 7 rows, 15 columns, and 27 nonzeros.
Reduced MIP has 3 binaries, 0 generals, 0 SOSs, and 0 indicators.
Presolve time = 0.00 sec. (0.01 ticks)
Probing time = 0.00 sec. (0.00 ticks)
MIP emphasis: balance optimality and feasibility.
MIP search method: dynamic search.
Parallel mode: none, using 1 thread.
Tried aggregator 1 time.
No LP presolve or aggregator reductions.
Presolve time = 0.00 sec. (0.00 ticks)

Iteration      Dual Objective            In Variable           Out Variable
     1          320000.000000                 x(1,1)  demand_limit(1) slack
     2          500000.000000                 x(1,2)  demand_limit(2) slack
     3          750000.000000                 x(1,3)  demand_limit(3) slack
     4          825000.000000                 x(3,4)  demand_limit(4) slack
     5         1030000.000000                 x(3,2)capacity_limit(1) slack
     6         1110000.000000                 x(2,1)capacity_limit(2) slack
     7         1211818.181818                   y(2)capacity_limit(3) slack
     8         1253939.393939                   y(3)                 x(3,2)
Root relaxation solution time = 0.00 sec. (0.01 ticks)

        Nodes                                         Cuts/
   Node  Left     Objective  IInf  Best Integer    Best Bound    ItCnt     Gap

*     0+    0                      1650000.0000        0.0000           100.00%
Found incumbent of value 1650000.000000 after 0.06 sec. (0.08 ticks)
      0     0  1253939.3939     2  1650000.0000  1253939.3939        8   24.00%
*     0+    0                      1460000.0000  1253939.3939            14.11%
Found incumbent of value 1460000.000000 after 0.06 sec. (0.09 ticks)
*     0+    0                      1290000.0000  1253939.3939             2.80%
Found incumbent of value 1290000.000000 after 0.08 sec. (0.10 ticks)
      0     0        cutoff        1290000.0000                     10    0.00%
Elapsed time = 0.08 sec. (0.11 ticks, tree = 0.01 MB, solutions = 3)

Root node processing (before b&c):
  Real time             =    0.08 sec. (0.11 ticks)
Sequential b&c:
  Real time             =    0.00 sec. (0.00 ticks)
                          ------------
Total (root+branch&cut) =    0.08 sec. (0.11 ticks)

--- MIP status (101): integer optimal solution.
--- Cplex Time: 0.08sec (det. 0.11 ticks)

--- Fixing integer variables and solving final LP...

Version identifier: 20.1.0.1 | 2021-04-07 | 3a818710c
CPXPARAM_Advance                                 2
CPXPARAM_Simplex_Display                         2
CPXPARAM_Threads                                 1
CPXPARAM_MIP_Display                             4
CPXPARAM_MIP_Tolerances_AbsMIPGap                0
Tried aggregator 1 time.
LP Presolve eliminated 1 rows and 8 columns.
Reduced LP has 6 rows, 8 columns, and 16 nonzeros.
Presolve time = 0.00 sec. (0.01 ticks)

Iteration      Dual Objective            In Variable           Out Variable
     1          720000.000000                 x(1,1)  demand_limit(1) slack
     2          900000.000000                 x(1,2)  demand_limit(2) slack
     3         1150000.000000                 x(1,3)  demand_limit(3) slack
     4         1185000.000000                 x(2,1)capacity_limit(1) slack
     5         1290000.000000                 x(2,4)  demand_limit(4) slack

--- Fixed MIP status (1): optimal.
--- Cplex Time: 0.00sec (det. 0.02 ticks)


Proven optimal solution
MIP Solution:      1290000.000000    (10 iterations, 0 nodes)
Final Solve:       1290000.000000    (5 iterations)

Best possible:     1290000.000000
Absolute gap:            0.000000
Relative gap:            0.000000

--- Reading solution for model transport
--- Executing after solve: elapsed 0:00:00.472
--- 5_Transport_Problem.gms(26) 4 Mb
*** Status: Normal completion
--- Job 5_Transport_Problem.gms Stop 11/17/21 22:15:46 elapsed 0:00:00.473
